c [MSE2022] -- begin -- [MSE2022]
0.00/0.01	c
0.00/0.01	c NuWLS based on TT-Open-WBO-Inc:	 an Anytime MaxSAT Solver --- based on Glucose4.1 (core version)
0.00/0.01	c Version:	 MaxSAT Evaluation 2021
0.00/0.01	c Author of NuWLS:	 Yi Chu, Xiang He
0.00/0.01	c Author of TT-Open-WBO-Inc:	 Alexander Nadel
0.00/0.01	c Authors of the baseline solver Open-WBO-Inc:	 Saurabh Joshi, Prateek Kumar, Ruben Martins, Sukrut Rao
0.00/0.01	c WARNING: for repeatability, setting FPU to use double precision
0.00/0.01	c |                                                                                                       |
0.00/0.01	c ========================================[ Problem Statistics ]===========================================
0.00/0.01	c |                                                                                                       |
0.00/0.01	c |  Problem Format:             MaxSAT                                                                   |
0.00/0.01	c |  Problem Type:           Unweighted                                                                   |
0.00/0.01	c |  Number of variables:          1173                                                                   |
0.00/0.01	c |  Number of hard clauses:          0                                                                   |
0.00/0.01	c |  Number of soft clauses:      16140                                                                   |
0.00/0.01	c |  Number of cardinality:           0                                                                   |
0.00/0.01	c |  Number of PB :                   0                                                                   |
0.00/0.01	c |  Parse time:                   0.00 s                                                                 |
0.00/0.01	c |                                                                                                       |
0.00/0.01	c | best-alg-selector overriden target_vars_bump_val to 0, since it hadn't been set by the user |
0.00/0.01	c | best-alg-selector overriden ms_model_per_sec_thr to 2, since it hadn't been set by the user |
0.00/0.01	c | best-alg-selector overriden ms_mutation_classes to 0, since it hadn't been set by the user |
0.00/0.01	c | best-alg-selector overriden ms_chrono to 100, since it hadn't been set by the user |
0.00/0.01	c ==========================================[ Solver Settings ]============================================
0.00/0.01	c |                                                                                                       |
0.00/0.01	c |  Algorithm:                     OBV                                                                   |
0.00/0.01	c |  Cardinality Encoding:       Modulo Totalizer                                                         |
0.00/0.01	c |  Limit number conflicts:       1000                                                                   |
0.00/0.01	c |  Limit number iterations: 2147483647                                                                   |
0.00/0.01	c |  Global limit number conflicts:   F                                                                   |
0.00/0.01	c |                                                                                                       |
0.00/0.01	c Mrs. Beaver incomplete stage
0.00/0.01	o 3556
0.00/0.01	c total_lit_count 33453
0.00/0.01	c before build neighbor
0.00/0.01	c build instime is 0
0.00/0.01	c using neighbor 
0.00/0.01	c build NuWLS instance done!
0.00/0.01	c changing to NuWLS solver!!!
0.00/0.01	c problem weighted = 0
0.00/0.01	o 3556
0.00/0.01	o 3546
0.00/0.01	o 3538
0.00/0.01	o 3531
0.00/0.01	o 3524
0.00/0.01	o 3518
0.00/0.02	o 3512
0.00/0.02	o 3506
0.00/0.02	o 3499
0.00/0.02	o 3493
0.00/0.02	o 3485
0.00/0.02	o 3475
0.00/0.02	o 3469
0.00/0.02	o 3462
0.00/0.02	o 3456
0.00/0.02	o 3450
0.00/0.02	o 3443
0.00/0.02	o 3437
0.00/0.02	o 3431
0.00/0.02	o 3426
0.00/0.02	o 3420
0.00/0.02	o 3414
0.00/0.02	o 3409
0.00/0.02	o 3403
0.00/0.02	o 3397
0.00/0.02	o 3391
0.00/0.02	o 3385
0.00/0.02	o 3379
0.00/0.02	o 3373
0.00/0.02	o 3367
0.00/0.02	o 3362
0.00/0.02	o 3356
0.00/0.02	o 3350
0.00/0.02	o 3344
0.00/0.02	o 3338
0.00/0.02	o 3333
0.00/0.02	o 3328
0.00/0.02	o 3323
0.00/0.02	o 3318
0.00/0.02	o 3313
0.00/0.03	o 3308
0.00/0.03	o 3303
0.00/0.03	o 3298
0.00/0.03	o 3293
0.00/0.03	o 3288
0.00/0.03	o 3283
0.00/0.03	o 3278
0.00/0.03	o 3273
0.00/0.03	o 3268
0.00/0.03	o 3263
0.00/0.03	o 3258
0.00/0.03	o 3253
0.00/0.03	o 3248
0.00/0.03	o 3243
0.00/0.03	o 3238
0.00/0.03	o 3232
0.00/0.03	o 3227
0.00/0.03	o 3222
0.00/0.03	o 3217
0.00/0.03	o 3213
0.00/0.03	o 3208
0.00/0.03	o 3204
0.00/0.03	o 3199
0.00/0.03	o 3195
0.00/0.03	o 3191
0.00/0.03	o 3187
0.00/0.03	o 3182
0.00/0.03	o 3178
0.00/0.03	o 3174
0.00/0.03	o 3170
0.00/0.03	o 3166
0.00/0.03	o 3162
0.00/0.03	o 3158
0.00/0.03	o 3152
0.00/0.04	o 3147
0.00/0.04	o 3142
0.00/0.04	o 3138
0.00/0.04	o 3134
0.00/0.04	o 3130
0.00/0.04	o 3125
0.00/0.04	o 3121
0.00/0.04	o 3116
0.00/0.04	o 3111
0.00/0.04	o 3107
0.00/0.04	o 3103
0.00/0.04	o 3099
0.00/0.04	o 3095
0.00/0.04	o 3091
0.00/0.04	o 3086
0.00/0.04	o 3082
0.00/0.04	o 3078
0.00/0.04	o 3074
0.00/0.04	o 3071
0.00/0.04	o 3067
0.00/0.04	o 3063
0.00/0.04	o 3060
0.00/0.04	o 3056
0.00/0.04	o 3052
0.00/0.04	o 3049
0.00/0.04	o 3046
0.00/0.04	o 3043
0.00/0.04	o 3040
0.00/0.04	o 3036
0.00/0.04	o 3032
0.00/0.04	o 3029
0.00/0.04	o 3026
0.00/0.04	o 3023
0.00/0.04	o 3020
0.00/0.05	o 3017
0.00/0.05	o 3014
0.00/0.05	o 3011
0.00/0.05	o 3008
0.00/0.05	o 3003
0.00/0.05	o 3000
0.00/0.05	o 2996
0.00/0.05	o 2993
0.00/0.05	o 2990
0.00/0.05	o 2987
0.00/0.05	o 2984
0.00/0.05	o 2981
0.00/0.05	o 2978
0.00/0.05	o 2975
0.00/0.05	o 2972
0.00/0.05	o 2969
0.00/0.05	o 2966
0.00/0.05	o 2963
0.00/0.05	o 2960
0.00/0.05	o 2957
0.00/0.05	o 2954
0.00/0.05	o 2951
0.00/0.05	o 2948
0.00/0.05	o 2945
0.00/0.05	o 2942
0.00/0.05	o 2938
0.00/0.05	o 2935
0.00/0.05	o 2931
0.00/0.05	o 2928
0.00/0.05	o 2925
0.00/0.05	o 2922
0.00/0.05	o 2919
0.00/0.05	o 2916
0.00/0.05	o 2913
0.00/0.05	o 2910
0.00/0.06	o 2907
0.00/0.06	o 2904
0.00/0.06	o 2901
0.00/0.06	o 2897
0.00/0.06	o 2893
0.00/0.06	o 2890
0.00/0.06	o 2887
0.00/0.06	o 2884
0.00/0.06	o 2881
0.00/0.06	o 2878
0.00/0.06	o 2876
0.00/0.06	o 2872
0.00/0.06	o 2869
0.00/0.06	o 2867
0.00/0.06	o 2864
0.00/0.06	o 2862
0.00/0.06	o 2859
0.00/0.06	o 2856
0.00/0.06	o 2853
0.00/0.06	o 2851
0.00/0.06	o 2849
0.00/0.06	o 2847
0.00/0.06	o 2845
0.00/0.06	o 2843
0.00/0.06	o 2841
0.00/0.06	o 2838
0.00/0.06	o 2836
0.00/0.06	o 2834
0.00/0.06	o 2831
0.00/0.06	o 2829
0.00/0.06	o 2827
0.00/0.06	o 2825
0.00/0.06	o 2823
0.00/0.06	o 2821
0.00/0.06	o 2818
0.00/0.07	o 2816
0.00/0.07	o 2812
0.00/0.07	o 2809
0.00/0.07	o 2806
0.00/0.07	o 2804
0.00/0.07	o 2802
0.00/0.07	o 2800
0.00/0.07	o 2797
0.00/0.07	o 2795
0.00/0.07	o 2792
0.06/0.07	o 2790
0.06/0.07	o 2788
0.06/0.07	o 2786
0.06/0.07	s SATISFIABLE
0.06/0.07	o 2786 
0.06/0.07	v 010111001101010101000001000000000001101111110010000010111011011011000000111011000010110000001001001100001000111100100010111011000101111010011001111110000001010011010010011001010101101101101010010000001010011001011100110101101011100100110110100110000110111111111101100000010000010110111010110101010001011001111000100010100101000110000011110011101100010000011010111110001111111111011100101000111100100011110001010011111110111101111001010000000100101001111000111101010000000110000100111010111111110111110110100110100000111101000101100110100011111110110111110100001100001010000000110110101001001101000010111111011000110010011011111100010101100100111111000011110101110000101111110111011010110110011110110100110001010110011101101101001100110110111011101000111001001111001110110100101011100100001100100010101001010111100010000110001011011100011001101110111011000010111110011011000111011000101000101010110010110101110101001101001100110110010010101101001000110001001101100001010100010100010110010001111101000100001001011000101110110100111101001111001100111110001111001010000101000001110011000110101001001001010000101000111101110000011010000001001011101000000010011001000011000011110
c [MSE2022] -- end -- [MSE2022]
